data_generator/8.atsp
NAME: 8
TYPE: ATSP
DIMENSION: 8
EDGE_WEIGHT_TYPE: EXPLICIT
EDGE_WEIGHT_FORMAT: FULL_MATRIX
EDGE_WEIGHT_SECTION
 999999 36 42 15 80 23 58 90
 74 999999 22 99 6 43 48 26
 62 69 999999 50 31 52 63 11
 47 9 89 999999 52 10 23 27
 10 18 88 82 999999 97 97 65
 61 31 86 69 93 999999 24 11
 98 66 93 75 47 11 999999 92
 56 39 51 44 16 82 53 999999
EOF
