data_generator/8.opt.tour
NAME : 8.opt.tour
TYPE : TOUR
DIMENSION : 8
COMMENT : OPTIMAL_COST = 139
TOUR_SECTION
1
4
7
6
2
3
8
5
-1
EOF
